12
0 83 73 34 60 31 9 46 41 82 95 24 
83 0 94 58 66 20 69 44 58 8 29 26 
73 94 0 88 84 16 30 0 98 37 11 55 
34 58 88 0 79 93 91 78 43 31 75 84 
60 66 84 79 0 20 2 42 47 11 35 38 
31 20 16 93 20 0 10 93 81 50 80 3 
9 69 30 91 2 10 0 28 2 5 1 10 
46 44 0 78 42 93 28 0 17 46 88 33 
41 58 98 43 47 81 2 17 0 32 72 44 
82 8 37 31 11 50 5 46 32 0 33 83 
95 29 11 75 35 80 1 88 72 33 0 65 
24 26 55 84 38 3 10 33 44 83 65 0 
BBRRRRBRBRBB
